
Starting CP-SAT solver v9.15.6755
Parameters: random_seed: 2026074348 max_time_in_seconds: 2500 log_search_progress: true cp_model_presolve: true linearization_level: 2 num_search_workers: 4 cp_model_probing_level: 2 symmetry_level: 2

Initial satisfaction model '': (model_fingerprint: 0x12f8f8b1bf42b588)
#Variables: 724 (604 primary variables)
  - 724 Booleans in [0,1]
#kBoolAnd: 110 (#enforced: 110) (#literals: 330)
#kBoolOr: 110 (#enforced: 110) (#literals: 220)
#kExactlyOne: 87 (#literals: 261)
#kLinear1: 36 (#enforced: 6)
#kLinear2: 336 (#enforced: 336) (#complex_domain: 110)
#kLinear3: 1'600 (#enforced: 6)
#kLinearN: 1'132 (#enforced: 243) (#terms: 9'111)

Starting presolve at 0.00s
  6.60e-04s  0.00e+00d  [DetectDominanceRelations] 
  8.35e-03s  0.00e+00d  [PresolveToFixPoint] #num_loops=3 #num_dual_strengthening=1 
  4.03e-05s  0.00e+00d  [ExtractEncodingFromLinear] #potential_supersets=100 
  3.02e-04s  0.00e+00d  [DetectDuplicateColumns] 
  1.10e-04s  0.00e+00d  [DetectDuplicateConstraints] #duplicates=9 
[Symmetry] Graph for symmetry has 4'855 nodes and 15'612 arcs.
[Symmetry] Symmetry computation done. time: 0.00128176 dtime: 0.00183354
[SAT presolve] num removable Booleans: 220 / 622
[SAT presolve] num trivial clauses: 0
[SAT presolve] [0s] clauses:2'708 literals:7'370 vars:506 one_side_vars:66 simple_definition:1 singleton_clauses:0
[SAT presolve] [0.000232049s] clauses:2'707 literals:7'363 vars:506 one_side_vars:66 simple_definition:1 singleton_clauses:0
[SAT presolve] [0.000693065s] clauses:2'230 literals:6'560 vars:380 one_side_vars:71 simple_definition:67 singleton_clauses:0
  1.20e-04s  0.00e+00d  [DetectDuplicateConstraintsWithDifferentEnforcements] #without_enforcements=4 
  5.57e-03s  2.32e-03d  [Probe] #probed=1'300 #equiv=2 #new_binary_clauses=1'634 
  5.15e-04s  5.30e-04d  [MaxClique] Merged 589 constraints with 1'340 literals into 471 constraints with 1'162 literals
  8.41e-04s  0.00e+00d  [DetectDominanceRelations] 
  3.20e-03s  0.00e+00d  [PresolveToFixPoint] #num_loops=1 #num_dual_strengthening=1 
  1.36e-03s  0.00e+00d  [ProcessAtMostOneAndLinear] 
  8.73e-05s  0.00e+00d  [DetectDuplicateConstraints] 
  7.32e-05s  0.00e+00d  [DetectDuplicateConstraintsWithDifferentEnforcements] 
  5.28e-03s  1.31e-04d  [DetectDominatedLinearConstraints] #relevant_constraints=829 #num_inclusions=634 #num_redundant=6 
  1.26e-04s  0.00e+00d  [DetectDifferentVariables] 
  7.86e-04s  8.05e-05d  [ProcessSetPPC] #relevant_constraints=3'014 #num_inclusions=61 
  2.96e-04s  3.35e-05d  [TransformClausesToExactlyOne] #num_amos=534 #num_clauses=1'661 #num_checked=1'661 
  4.60e-05s  0.00e+00d  [DetectEncodedComplexDomains] 
  2.96e-05s  0.00e+00d  [FindAlmostIdenticalLinearConstraints] 
  1.00e-03s  1.46e-03d  [FindBigAtMostOneAndLinearOverlap] 
  1.56e-03s  1.09e-03d  [FindBigVerticalLinearOverlap] #blocks=7 #saved_nz=258 
  3.01e-04s  5.46e-04d  [FindBigHorizontalLinearOverlap] #linears=457 
  3.17e-04s  2.68e-05d  [MergeClauses] #num_collisions=18 #num_merges=18 #num_saved_literals=90 
  7.87e-04s  0.00e+00d  [DetectDominanceRelations] 
  3.17e-03s  0.00e+00d  [PresolveToFixPoint] #num_loops=2 #num_dual_strengthening=1 
  7.91e-04s  0.00e+00d  [DetectDominanceRelations] 
  3.02e-03s  0.00e+00d  [PresolveToFixPoint] #num_loops=1 #num_dual_strengthening=1 
  2.28e-04s  0.00e+00d  [DetectDuplicateColumns] 
  8.87e-05s  0.00e+00d  [DetectDuplicateConstraints] 
[Symmetry] Graph for symmetry has 4'397 nodes and 13'623 arcs.
[Symmetry] Symmetry computation done. time: 0.00100634 dtime: 0.00134895
[SAT presolve] num removable Booleans: 93 / 493
[SAT presolve] num trivial clauses: 0
[SAT presolve] [0s] clauses:2'103 literals:6'238 vars:467 one_side_vars:165 simple_definition:82 singleton_clauses:0
[SAT presolve] [0.000234805s] clauses:2'103 literals:6'053 vars:467 one_side_vars:214 simple_definition:66 singleton_clauses:0
[SAT presolve] [0.000317184s] clauses:2'097 literals:6'046 vars:465 one_side_vars:215 simple_definition:61 singleton_clauses:0
  1.52e-04s  0.00e+00d  [DetectDuplicateConstraintsWithDifferentEnforcements] 
  6.27e-03s  2.28e-03d  [Probe] #probed=1'300 #new_binary_clauses=1'589 
  5.40e-04s  5.44e-04d  [MaxClique] Merged 530 constraints with 1'221 literals into 521 constraints with 1'219 literals
  8.18e-04s  0.00e+00d  [DetectDominanceRelations] 
  3.05e-03s  0.00e+00d  [PresolveToFixPoint] #num_loops=1 #num_dual_strengthening=1 
  1.23e-03s  0.00e+00d  [ProcessAtMostOneAndLinear] 
  1.35e-04s  0.00e+00d  [DetectDuplicateConstraints] 
  8.01e-05s  0.00e+00d  [DetectDuplicateConstraintsWithDifferentEnforcements] 
  7.16e-04s  5.32e-05d  [DetectDominatedLinearConstraints] #relevant_constraints=828 #num_inclusions=286 
  1.42e-04s  0.00e+00d  [DetectDifferentVariables] 
  7.64e-04s  7.05e-05d  [ProcessSetPPC] #relevant_constraints=3'049 #num_inclusions=69 
  3.24e-04s  3.28e-05d  [TransformClausesToExactlyOne] #num_amos=521 #num_clauses=1'658 #num_checked=1'658 
  4.17e-05s  0.00e+00d  [DetectEncodedComplexDomains] 
  3.55e-05s  0.00e+00d  [FindAlmostIdenticalLinearConstraints] 
  9.28e-04s  1.13e-03d  [FindBigAtMostOneAndLinearOverlap] 
  1.36e-03s  9.66e-04d  [FindBigVerticalLinearOverlap] #blocks=1 #saved_nz=42 
  3.05e-04s  5.37e-04d  [FindBigHorizontalLinearOverlap] #linears=458 
  3.42e-04s  2.58e-05d  [MergeClauses] #num_collisions=80 #num_merges=80 #num_saved_literals=221 
  8.77e-04s  0.00e+00d  [DetectDominanceRelations] 
  3.17e-03s  0.00e+00d  [PresolveToFixPoint] #num_loops=2 #num_dual_strengthening=1 
  8.15e-04s  0.00e+00d  [DetectDominanceRelations] 
  3.02e-03s  0.00e+00d  [PresolveToFixPoint] #num_loops=1 #num_dual_strengthening=1 
  1.90e-04s  0.00e+00d  [DetectDuplicateColumns] 
  9.24e-05s  0.00e+00d  [DetectDuplicateConstraints] 
[Symmetry] Graph for symmetry has 4'331 nodes and 13'227 arcs.
[Symmetry] Symmetry computation done. time: 0.000964477 dtime: 0.00131188
[SAT presolve] num removable Booleans: 91 / 491
[SAT presolve] num trivial clauses: 0
[SAT presolve] [0s] clauses:2'085 literals:6'020 vars:465 one_side_vars:215 simple_definition:61 singleton_clauses:0
[SAT presolve] [0.000216293s] clauses:2'085 literals:6'020 vars:465 one_side_vars:215 simple_definition:61 singleton_clauses:0
[SAT presolve] [0.000286439s] clauses:2'085 literals:6'020 vars:465 one_side_vars:215 simple_definition:61 singleton_clauses:0
  1.70e-04s  0.00e+00d  [DetectDuplicateConstraintsWithDifferentEnforcements] 
  6.32e-03s  2.29e-03d  [Probe] #probed=1'300 #new_binary_clauses=1'589 
  5.22e-04s  5.36e-04d  [MaxClique] 
  8.60e-04s  0.00e+00d  [DetectDominanceRelations] 
  3.17e-03s  0.00e+00d  [PresolveToFixPoint] #num_loops=1 #num_dual_strengthening=1 
  1.23e-03s  0.00e+00d  [ProcessAtMostOneAndLinear] 
  1.10e-04s  0.00e+00d  [DetectDuplicateConstraints] 
  9.08e-05s  0.00e+00d  [DetectDuplicateConstraintsWithDifferentEnforcements] 
  7.50e-04s  5.12e-05d  [DetectDominatedLinearConstraints] #relevant_constraints=829 #num_inclusions=282 
  1.43e-04s  0.00e+00d  [DetectDifferentVariables] 
  8.11e-04s  6.97e-05d  [ProcessSetPPC] #relevant_constraints=3'048 #num_inclusions=66 
  3.39e-04s  3.28e-05d  [TransformClausesToExactlyOne] #num_amos=519 #num_clauses=1'658 #num_checked=1'658 
  5.30e-05s  0.00e+00d  [DetectEncodedComplexDomains] 
  4.64e-05s  1.00e-07d  [FindAlmostIdenticalLinearConstraints] #num_tested_pairs=1 
  8.96e-04s  1.08e-03d  [FindBigAtMostOneAndLinearOverlap] 
  1.34e-03s  9.29e-04d  [FindBigVerticalLinearOverlap] 
  3.10e-04s  5.37e-04d  [FindBigHorizontalLinearOverlap] #linears=458 
  3.45e-04s  2.58e-05d  [MergeClauses] #num_collisions=80 #num_merges=80 #num_saved_literals=221 
  8.70e-04s  0.00e+00d  [DetectDominanceRelations] 
  3.16e-03s  0.00e+00d  [PresolveToFixPoint] #num_loops=1 #num_dual_strengthening=1 
  1.62e-05s  0.00e+00d  [MergeNoOverlap] 
  1.60e-05s  0.00e+00d  [MergeNoOverlap2D] 

Presolve summary:
  - 29 affine relations were detected.
  - rule 'TODO dual: only one blocking constraint?' was applied 984 times.
  - rule 'TODO dual: tighten at most one' was applied 8 times.
  - rule 'TODO linear inclusion: superset is equality' was applied 281 times.
  - rule 'affine: new relation' was applied 29 times.
  - rule 'at_most_one: transformed into max clique' was applied 2 times.
  - rule 'bool_or: implications' was applied 50 times.
  - rule 'bool_or: only one literal' was applied 12 times.
  - rule 'bool_or: removed enforcement literal' was applied 557 times.
  - rule 'deductions: 780 stored' was applied 1 time.
  - rule 'duplicate: merged rhs of linear constraint' was applied 8 times.
  - rule 'duplicate: removed constraint' was applied 9 times.
  - rule 'duplicate: removed enforced constraint' was applied 4 times.
  - rule 'enforcement: false literal' was applied 32 times.
  - rule 'enforcement: true literal' was applied 6 times.
  - rule 'exactly_one: removed literals' was applied 29 times.
  - rule 'exactly_one: satisfied' was applied 7 times.
  - rule 'exactly_one: singleton' was applied 3 times.
  - rule 'exactly_one: size two' was applied 26 times.
  - rule 'incompatible linear: add implication' was applied 144 times.
  - rule 'linear + amo: empty after processing' was applied 6 times.
  - rule 'linear + amo: extracted enforcement literal' was applied 64 times.
  - rule 'linear + amo: trivial linear constraint' was applied 2 times.
  - rule 'linear inclusion: redundant containing constraint' was applied 2 times.
  - rule 'linear inclusion: redundant included constraint' was applied 3 times.
  - rule 'linear inclusion: sparsify superset' was applied 1 time.
  - rule 'linear matrix: common vertical rectangle' was applied 8 times.
  - rule 'linear1: always true' was applied 1 time.
  - rule 'linear1: x in domain' was applied 30 times.
  - rule 'linear2: convert ax + by != cte to clauses' was applied 242 times.
  - rule 'linear2: convert implied ax + by == cte to clauses' was applied 114 times.
  - rule 'linear2: implied ax + by = cte has only one solution' was applied 8 times.
  - rule 'linear: always true' was applied 431 times.
  - rule 'linear: coefficient strengthening by increasing it' was applied 2 times.
  - rule 'linear: empty' was applied 3 times.
  - rule 'linear: enforcement literal in expression' was applied 2 times.
  - rule 'linear: extracted at most one (max)' was applied 1 time.
  - rule 'linear: fixed or dup variables' was applied 879 times.
  - rule 'linear: negative clause' was applied 1'287 times.
  - rule 'linear: negative reified and' was applied 74 times.
  - rule 'linear: never in domain' was applied 6 times.
  - rule 'linear: positive at most one' was applied 48 times.
  - rule 'linear: reduced variable domains' was applied 9 times.
  - rule 'linear: remapped using affine relations' was applied 23 times.
  - rule 'presolve: 74 unused variables removed.' was applied 1 time.
  - rule 'presolve: iteration' was applied 3 times.
  - rule 'probing: bool_or reduced to implication' was applied 28 times.
  - rule 'probing: simplified clauses' was applied 12 times.
  - rule 'setppc: bool_or in at_most_one' was applied 7 times.
  - rule 'setppc: removed dominated constraints' was applied 100 times.
  - rule 'variables: both boolean and its negation fix the same variable' was applied 1 time.
  - rule 'variables: detect half reified value encoding' was applied 2 times.

Presolved satisfaction model '': (model_fingerprint: 0x51a0eed4b87e0c46)
#Variables: 498 (427 primary variables)
  - 491 Booleans in [0,1]
  - 7 in [0,2]
#kAtMostOne: 92 (#literals: 345)
#kBoolAnd: 266 (#enforced: 266) (#literals: 693)
#kBoolAndClauses: 80 (#enforced: 80 #multi: 80) (#literals: 381)
#kBoolOr: 1'498 (#literals: 4'564)
#kExactlyOne: 57 (#literals: 223)
#kLinear3: 15 (#enforced: 10)
#kLinearN: 814 (#enforced: 124) (#terms: 5'638)
[Symmetry] Graph for symmetry has 4'097 nodes and 13'227 arcs.
[Symmetry] Symmetry computation done. time: 0.000919988 dtime: 0.00129788

Preloading model.
#Model   0.10s var:498/498 constraints:2822/2822

Starting search at 0.10s with 4 workers.
3 full problem subsolvers: [default_lp, max_lp, no_lp]
1 first solution subsolver: [fj]
2 interleaved subsolvers: [feasibility_pump, rins/rens]
2 helper subsolvers: [neighborhood_helper, synchronization_agent]

#Model  68.20s var:497/498 constraints:2820/2822
#Model  69.18s var:496/498 constraints:2820/2822
#Model 228.82s var:495/498 constraints:2818/2822
#Model 696.85s var:490/498 constraints:2764/2822
#Model 842.36s var:489/498 constraints:2762/2822
#Model 1076.49s var:488/498 constraints:2760/2822
#Model 1633.53s var:487/498 constraints:2736/2822
#Model 1735.14s var:486/498 constraints:2717/2822
#Model 1736.21s var:478/498 constraints:2618/2822
#Model 1740.48s var:477/498 constraints:2599/2822
#Model 1749.08s var:471/498 constraints:2552/2822
#Model 1750.67s var:440/498 constraints:2133/2822
#Model 1750.86s var:439/498 constraints:2118/2822
#Model 1751.00s var:437/498 constraints:2085/2822
#Model 1751.05s var:436/498 constraints:2068/2822
#Model 1751.18s var:435/498 constraints:2067/2822
#Model 1751.83s var:409/498 constraints:1736/2822
#Done  1751.85s no_lp

Task timing                   n [     min,      max]      avg      dev     time         n [     min,      max]      avg      dev    dtime
        'default_lp':         1 [  29.20m,   29.20m]   29.20m   0.00ns   29.20m         2 [  2.53ms,   26.33m]   13.16m   13.16m   26.33m
  'feasibility_pump':      8675 [  1.05ms, 139.53ms]   1.82ms   1.53ms   15.75s      8674 [284.31us, 114.21ms] 300.60us   1.22ms    2.61s
                'fj':      6284 [ 27.15ms, 176.12ms] 138.04ms   8.74ms   14.46m      6284 [ 16.22ms, 100.13ms] 100.00ms   1.06ms   10.47m
            'max_lp':         1 [  29.20m,   29.20m]   29.20m   0.00ns   29.20m         2 [ 95.31ms,   33.79m]   16.90m   16.89m   33.79m
             'no_lp':         1 [  29.20m,   29.20m]   29.20m   0.00ns   29.20m         2 [  2.27ms,   55.04m]   27.52m   27.52m   55.04m
         'rins/rens':      7569 [ 17.51ms, 180.26ms] 114.60ms  43.83ms   14.46m      7569 [184.15us, 100.31ms]  67.76ms  37.47ms    8.55m

Search stats     Bools   Conflicts    Branches  Restarts  BacktrackToRoot   Backtrack     BoolPropag  IntegerPropag
  'default_lp':    491     159'365   5'702'119       773          947'751   1'345'735     66'933'079     78'826'188
      'max_lp':    491     139'127   7'225'020       551        1'154'553   1'555'864     85'546'748    101'057'627
       'no_lp':    491  13'875'328  19'428'838    49'146          474'157  14'238'078  1'283'309'723    336'715'776

SAT formula      Fixed  Equiv  Total  VarLeft  BinaryClauses  PermanentClauses  TemporaryClauses
  'default_lp':     21      7    491      463          3'430            33'367             3'214
      'max_lp':     20      5    491      466          3'554            37'926             4'755
       'no_lp':    182     12    491      297          3'524            30'406             3'528

SAT stats        ClassicMinim   LitRemoved  LitRemovedBinary   LitLearned  LitForgotten   Subsumed
  'default_lp':       140'383    1'730'080           825'582    4'350'730     2'632'624     60'244
      'max_lp':       119'392    1'605'340           656'564    3'203'808     1'794'912     43'832
       'no_lp':    12'402'662  207'105'173        59'642'395  322'986'995   249'141'573  4'029'342

Vivification       Clauses  Decisions  LitTrue  Subsumed  LitRemoved  DecisionReused  Conflicts
  'default_lp':  1'002'111  5'324'907        1    13'541     151'476         299'326      1'741
      'max_lp':  1'183'742  6'820'913        0    15'679     177'517         328'685      1'895
       'no_lp':    373'898  2'966'110       29    20'235     271'822          94'684      1'703

Clause deletion    at_true  l_and_not(l)  to_binary  sub_conflict  sub_extra  sub_decisions  sub_eager  sub_vivify  sub_probing  sub_inpro  blocked  eliminated  forgotten    promoted   conflicts
    'default_lp':    7'189             5         67        59'430        374          2'263        814      13'541        6'095     18'244        0           0     77'049     301'456     159'365
        'max_lp':    5'459             2         63        43'256        359          1'512        576      15'679        4'606     21'362        0           0     65'522     281'893     139'127
         'no_lp':   79'012           361        226     3'961'179     27'542        214'521     68'163      20'235       24'507    132'196        0           0  9'318'678  31'340'959  13'875'328

Lp stats         Component  Iterations  AddedCuts  OPTIMAL  DUAL_F.  DUAL_U.
  'default_lp':          1  19'626'935     53'688  209'421        0  120'873
      'max_lp':          1   9'494'453     68'633   35'250  117'331   27'497

Lp dimension        Final dimension of first component
  'default_lp':    318 rows, 364 columns, 3180 entries
      'max_lp':  1160 rows, 498 columns, 12432 entries

Lp debug         CutPropag  CutEqPropag   Adjust  Overflow        Bad  BadScaling
  'default_lp':          0           77  120'871         0  1'617'438           0
      'max_lp':          0           16   27'494         0  2'026'858           0

Lp pool          Constraints  Updates  Simplif  Merged  Shortened  Split  Strengthened       Cuts/Call
  'default_lp':       10'511    8'762   16'891       0     17'026    540             1   53'688/98'874
      'max_lp':       12'782   26'637   18'193       0     18'199  1'694         1'772  68'633/144'905

Lp Cut            default_lp  max_lp
          CG_FF:         627     106
           CG_K:         363       4
          CG_KL:         283       1
           CG_R:         642      57
          CG_RB:          50       2
         CG_RBP:           4       2
         Clique:           -     171
             IB:          61       8
       MIR_1_FF:         425     834
        MIR_1_K:         108      24
       MIR_1_KL:         291      33
        MIR_1_R:         373     425
       MIR_1_RB:           3       -
      MIR_1_RBP:           4       -
      MIR_1_RLT:           -   6'161
       MIR_2_FF:         505     789
        MIR_2_K:         129     202
       MIR_2_KL:         258      86
        MIR_2_R:         577     854
       MIR_2_RB:          60       -
      MIR_2_RBP:          11       -
       MIR_3_FF:         220     174
        MIR_3_K:          58      30
       MIR_3_KL:          62       9
        MIR_3_R:         341     261
       MIR_3_RB:          79       6
      MIR_3_RBP:          36       7
       MIR_4_FF:          55      69
        MIR_4_K:          19      15
       MIR_4_KL:          18       4
        MIR_4_R:         198     239
       MIR_4_RB:          62       5
      MIR_4_RBP:          19      11
       MIR_5_FF:          19      27
        MIR_5_K:           7       8
       MIR_5_KL:           4       2
        MIR_5_R:         147     230
       MIR_5_RB:          54       2
      MIR_5_RBP:          12       9
       MIR_6_FF:           6       9
        MIR_6_K:           4       5
        MIR_6_R:         115     191
       MIR_6_RB:          41       4
      MIR_6_RBP:           9       7
   ZERO_HALF_FF:         202     499
    ZERO_HALF_K:          73      32
   ZERO_HALF_KL:          80       6
    ZERO_HALF_R:      46'937  56'983
   ZERO_HALF_RB:          13       1
  ZERO_HALF_RBP:          24      29

LNS stats       Improv/Calls  Closed  Difficulty  TimeLimit
  'rins/rens':     7569/7569     50%    8.49e-01       0.10

LS stats                                    Batches  Restarts/Perturbs    LinMoves   GenMoves  CompoundMoves  Bactracks  WeightUpdates  ScoreComputed
                             'fj_restart':      363                 93   9'845'304          0              0          0      9'346'797     17'028'702
                    'fj_restart_compound':      351                104           0  4'059'574        258'428  1'900'389          8'459     64'637'853
                'fj_restart_compound_obj':      564                100           0  6'707'489        277'570  3'214'757         16'935    104'165'788
            'fj_restart_compound_perturb':      167                 79           0  1'867'455        150'559    858'317          3'546     30'659'024
        'fj_restart_compound_perturb_obj':      300                 73           0  3'507'530        180'666  1'663'304          8'255     55'454'406
                       'fj_restart_decay':      579                 96  19'041'825          0              0          0        795'914     11'197'939
              'fj_restart_decay_compound':      273                 86           0  3'405'097        529'208  1'437'707          3'582     51'092'186
          'fj_restart_decay_compound_obj':      258                 66           0  3'295'316        512'683  1'391'209          3'355     48'409'178
      'fj_restart_decay_compound_perturb':      434                115           0  5'520'517        852'961  2'333'509          5'649     81'372'032
  'fj_restart_decay_compound_perturb_obj':      481                 81           0  6'385'201        985'651  2'699'592          6'199     90'533'748
                   'fj_restart_decay_obj':      244                 82   8'013'210          0              0          0        334'957      4'718'144
               'fj_restart_decay_perturb':      426                 94  14'004'968          0              0          0        585'204      8'245'166
           'fj_restart_decay_perturb_obj':      263                 84   8'642'639          0              0          0        361'064      5'086'077
                         'fj_restart_obj':      821                 85  21'012'801          0              0          0     21'428'241     42'939'566
                     'fj_restart_perturb':      230                 93   6'214'374          0              0          0      5'533'199     10'832'093
                 'fj_restart_perturb_obj':      530                 91  14'656'470          0              0          0     13'500'468     24'840'527

Solution repositories    Added  Queried  Synchro
    'alternative_path':      0        0        0
      'best_solutions':      0        0        0
   'fj solution hints':  1'414        0    1'414
        'lp solutions':  1'487    7'569    1'486
                'pump':      0        0

Improving bounds shared    Num  Sym
            'default_lp':    5    0
                'max_lp':    6    0
                 'no_lp':  107    0

Clauses shared    #Exported  #Imported  #BinaryRead  #BinaryTotal
   'default_lp':      3'288     63'082          556         1'328
       'max_lp':      3'888     62'138          534         1'328
        'no_lp':     63'239      7'295        1'328         1'328

LRAT_status: NA
CpSolverResponse summary:
status: INFEASIBLE
objective: NA
best_bound: NA
integers: 376
booleans: 491
conflicts: 13875328
branches: 19428838
propagations: 1283309723
integer_propagations: 336715776
restarts: 49146
lp_iterations: 0
walltime: 1751.87
usertime: 1751.87
deterministic_time: 8053.36
gap_integral: 0

{
  "board_size": 22,
  "parity_proved": 0,
  "target": 34,
  "child_id": 2248,
  "child_count": 2640,
  "partition": "unknown_pair_x_diag_plus_twos_x_diag_minus_twos",
  "build_seconds": 0.07442164421081543,
  "workers": 4,
  "requested_seed": 2026074348,
  "effective_seed": 2026074348,
  "main_diagonal_pair": [
    5,
    14
  ],
  "pair_index": 93,
  "diag_plus_twos": 17,
  "diag_minus_twos": 16,
  "pair_excess": 10,
  "residual_certificate_slack": 102,
  "analytic_minimum_line_defect": 0,
  "analytic_defect_details": {
    "row_costs": {
      "12": 6,
      "13": 3,
      "14": 0,
      "15": 0,
      "16": 0,
      "17": 0
    },
    "column_costs": {
      "12": 6,
      "13": 3,
      "14": 0,
      "15": 0,
      "16": 0,
      "17": 0
    },
    "plus_cost": 0,
    "minus_cost": 0,
    "row_column_minimum": 0
  },
  "maximal_line_constraints": 2455,
  "analytic_infeasible": false,
  "allowed_points": 242,
  "status": "INFEASIBLE",
  "proof_method": "cp_sat_all_lines_with_certificate_profile_cuts",
  "elapsed_seconds": 1751.8737750053406,
  "branches": 19428838,
  "conflicts": 13875328
}
